p cnf 139 305
64 -14 12 -11 0
-64 14 0
-64 -12 0
-64 11 0
65 -41 39 -38 0
-65 41 0
-65 -39 0
-65 38 0
66 -1 0
-66 1 0
67 -53 51 -50 0
-67 53 0
-67 -51 0
-67 50 0
68 -21 19 -18 0
-68 21 0
-68 -19 0
-68 18 0
69 -8 7 -6 0
-69 8 0
-69 -7 0
-69 6 0
70 -30 28 -27 0
-70 30 0
-70 -28 0
-70 27 0
-2 64 65 66 67 68 69 70 0
2 -64 0
2 -65 0
2 -66 0
2 -67 0
2 -68 0
2 -69 0
2 -70 0
71 -19 -18 0
-71 19 0
-71 18 0
72 -39 -38 0
-72 39 0
-72 38 0
73 -3 -2 0
-73 3 0
-73 2 0
74 -7 -6 0
-74 7 0
-74 6 0
75 -51 -50 0
-75 51 0
-75 50 0
76 -28 -27 0
-76 28 0
-76 27 0
77 -12 -11 0
-77 12 0
-77 11 0
-4 71 72 73 74 75 76 77 0
4 -71 0
4 -72 0
4 -73 0
4 -74 0
4 -75 0
4 -76 0
4 -77 0
78 -15 13 -11 0
-78 15 0
-78 -13 0
-78 11 0
79 -5 0
-79 5 0
80 -43 40 -38 0
-80 43 0
-80 -40 0
-80 38 0
81 -55 52 -50 0
-81 55 0
-81 -52 0
-81 50 0
82 -23 20 -18 0
-82 23 0
-82 -20 0
-82 18 0
83 -32 29 -27 0
-83 32 0
-83 -29 0
-83 27 0
-6 78 79 80 81 82 83 0
6 -78 0
6 -79 0
6 -80 0
6 -81 0
6 -82 0
6 -83 0
84 -8 0
-84 8 0
85 -7 0
-85 7 0
-9 84 85 0
9 -84 0
9 -85 0
86 -34 31 -27 0
-86 34 0
-86 -31 0
-86 27 0
87 -57 54 -50 0
-87 57 0
-87 -54 0
-87 50 0
88 -10 0
-88 10 0
89 -45 42 -38 0
-89 45 0
-89 -42 0
-89 38 0
90 -24 22 -18 0
-90 24 0
-90 -22 0
-90 18 0
-11 86 87 88 89 90 0
11 -86 0
11 -87 0
11 -88 0
11 -89 0
11 -90 0
91 -12 0
-91 12 0
92 -14 0
-92 14 0
-13 91 92 0
13 -91 0
13 -92 0
93 -15 0
-93 15 0
94 -13 0
-94 13 0
-16 93 94 0
16 -93 0
16 -94 0
95 -35 33 -27 0
-95 35 0
-95 -33 0
-95 27 0
96 -47 44 -38 0
-96 47 0
-96 -44 0
-96 38 0
97 -17 0
-97 17 0
98 -59 56 -50 0
-98 59 0
-98 -56 0
-98 50 0
-18 95 96 97 98 0
18 -95 0
18 -96 0
18 -97 0
18 -98 0
99 -19 0
-99 19 0
100 -21 0
-100 21 0
-20 99 100 0
20 -99 0
20 -100 0
101 -23 0
-101 23 0
102 -20 0
-102 20 0
-22 101 102 0
22 -101 0
22 -102 0
103 -22 0
-103 22 0
104 -24 0
-104 24 0
-25 103 104 0
25 -103 0
25 -104 0
105 -61 58 -50 0
-105 61 0
-105 -58 0
-105 50 0
106 -26 0
-106 26 0
107 -48 46 -38 0
-107 48 0
-107 -46 0
-107 38 0
-27 105 106 107 0
27 -105 0
27 -106 0
27 -107 0
108 -28 0
-108 28 0
109 -30 0
-109 30 0
-29 108 109 0
29 -108 0
29 -109 0
110 -32 0
-110 32 0
111 -29 0
-111 29 0
-31 110 111 0
31 -110 0
31 -111 0
112 -31 0
-112 31 0
113 -34 0
-113 34 0
-33 112 113 0
33 -112 0
33 -113 0
114 -35 0
-114 35 0
115 -33 0
-115 33 0
-36 114 115 0
36 -114 0
36 -115 0
116 -62 60 -50 0
-116 62 0
-116 -60 0
-116 50 0
117 -37 0
-117 37 0
-38 116 117 0
38 -116 0
38 -117 0
118 -39 0
-118 39 0
119 -41 0
-119 41 0
-40 118 119 0
40 -118 0
40 -119 0
120 -40 0
-120 40 0
121 -43 0
-121 43 0
-42 120 121 0
42 -120 0
42 -121 0
122 -45 0
-122 45 0
123 -42 0
-123 42 0
-44 122 123 0
44 -122 0
44 -123 0
124 -47 0
-124 47 0
125 -44 0
-125 44 0
-46 124 125 0
46 -124 0
46 -125 0
126 -46 0
-126 46 0
127 -48 0
-127 48 0
-49 126 127 0
49 -126 0
49 -127 0
128 -51 0
-128 51 0
129 -53 0
-129 53 0
-52 128 129 0
52 -128 0
52 -129 0
130 -55 0
-130 55 0
131 -52 0
-131 52 0
-54 130 131 0
54 -130 0
54 -131 0
132 -57 0
-132 57 0
133 -54 0
-133 54 0
-56 132 133 0
56 -132 0
56 -133 0
134 -56 0
-134 56 0
135 -59 0
-135 59 0
-58 134 135 0
58 -134 0
58 -135 0
136 -58 0
-136 58 0
137 -61 0
-137 61 0
-60 136 137 0
60 -136 0
60 -137 0
138 -62 0
-138 62 0
139 -60 0
-139 60 0
-63 138 139 0
63 -138 0
63 -139 0
c p weight 1 0.5 0
c p weight -1 0.5 0
c p weight 2 1.0 0
c p weight -2 1.0 0
c p weight 3 1.0 0
c p weight -3 0.0 0
c p weight 4 1.0 0
c p weight -4 0.0 0
c p weight 5 0.5 0
c p weight -5 0.5 0
c p weight 6 1.0 0
c p weight -6 1.0 0
c p weight 7 0.5 0
c p weight -7 0.5 0
c p weight 8 1.0 0
c p weight -8 0.0 0
c p weight 9 1.0 0
c p weight -9 1.0 0
c p weight 10 0.5 0
c p weight -10 0.5 0
c p weight 11 1.0 0
c p weight -11 1.0 0
c p weight 12 0.3333333333333333 0
c p weight -12 0.6666666666666667 0
c p weight 13 1.0 0
c p weight -13 1.0 0
c p weight 14 0.49999999999999994 0
c p weight -14 0.5 0
c p weight 15 0.9999999999999997 0
c p weight -15 3.3306690738754696e-16 0
c p weight 16 1.0 0
c p weight -16 1.0 0
c p weight 17 0.5 0
c p weight -17 0.5 0
c p weight 18 1.0 0
c p weight -18 1.0 0
c p weight 19 0.25 0
c p weight -19 0.75 0
c p weight 20 1.0 0
c p weight -20 1.0 0
c p weight 21 0.3333333333333333 0
c p weight -21 0.6666666666666667 0
c p weight 22 1.0 0
c p weight -22 1.0 0
c p weight 23 0.5 0
c p weight -23 0.5 0
c p weight 24 1.0 0
c p weight -24 0.0 0
c p weight 25 1.0 0
c p weight -25 1.0 0
c p weight 26 0.5 0
c p weight -26 0.5 0
c p weight 27 1.0 0
c p weight -27 1.0 0
c p weight 28 0.2 0
c p weight -28 0.8 0
c p weight 29 1.0 0
c p weight -29 1.0 0
c p weight 30 0.25 0
c p weight -30 0.75 0
c p weight 31 1.0 0
c p weight -31 1.0 0
c p weight 32 0.3333333333333333 0
c p weight -32 0.6666666666666667 0
c p weight 33 1.0 0
c p weight -33 1.0 0
c p weight 34 0.49999999999999994 0
c p weight -34 0.5 0
c p weight 35 0.9999999999999998 0
c p weight -35 2.220446049250313e-16 0
c p weight 36 1.0 0
c p weight -36 1.0 0
c p weight 37 0.5 0
c p weight -37 0.5 0
c p weight 38 1.0 0
c p weight -38 1.0 0
c p weight 39 0.16666666666666666 0
c p weight -39 0.8333333333333334 0
c p weight 40 1.0 0
c p weight -40 1.0 0
c p weight 41 0.19999999999999998 0
c p weight -41 0.8 0
c p weight 42 1.0 0
c p weight -42 1.0 0
c p weight 43 0.24999999999999997 0
c p weight -43 0.75 0
c p weight 44 1.0 0
c p weight -44 1.0 0
c p weight 45 0.33333333333333326 0
c p weight -45 0.6666666666666667 0
c p weight 46 1.0 0
c p weight -46 1.0 0
c p weight 47 0.4999999999999998 0
c p weight -47 0.5000000000000002 0
c p weight 48 0.999999999999999 0
c p weight -48 9.992007221626409e-16 0
c p weight 49 1.0 0
c p weight -49 1.0 0
c p weight 50 0.5 0
c p weight -50 0.5 0
c p weight 51 0.14285714285714285 0
c p weight -51 0.8571428571428572 0
c p weight 52 1.0 0
c p weight -52 1.0 0
c p weight 53 0.16666666666666666 0
c p weight -53 0.8333333333333334 0
c p weight 54 1.0 0
c p weight -54 1.0 0
c p weight 55 0.19999999999999996 0
c p weight -55 0.8 0
c p weight 56 1.0 0
c p weight -56 1.0 0
c p weight 57 0.24999999999999992 0
c p weight -57 0.7500000000000001 0
c p weight 58 1.0 0
c p weight -58 1.0 0
c p weight 59 0.33333333333333315 0
c p weight -59 0.6666666666666669 0
c p weight 60 1.0 0
c p weight -60 1.0 0
c p weight 61 0.4999999999999996 0
c p weight -61 0.5000000000000004 0
c p weight 62 0.9999999999999984 0
c p weight -62 1.5543122344752192e-15 0
c p weight 63 1.0 0
c p weight -63 1.0 0
c p weight 64 1.0 0
c p weight -64 1.0 0
c p weight 65 1.0 0
c p weight -65 1.0 0
c p weight 66 1.0 0
c p weight -66 1.0 0
c p weight 67 1.0 0
c p weight -67 1.0 0
c p weight 68 1.0 0
c p weight -68 1.0 0
c p weight 69 1.0 0
c p weight -69 1.0 0
c p weight 70 1.0 0
c p weight -70 1.0 0
c p weight 71 1.0 0
c p weight -71 1.0 0
c p weight 72 1.0 0
c p weight -72 1.0 0
c p weight 73 1.0 0
c p weight -73 1.0 0
c p weight 74 1.0 0
c p weight -74 1.0 0
c p weight 75 1.0 0
c p weight -75 1.0 0
c p weight 76 1.0 0
c p weight -76 1.0 0
c p weight 77 1.0 0
c p weight -77 1.0 0
c p weight 78 1.0 0
c p weight -78 1.0 0
c p weight 79 1.0 0
c p weight -79 1.0 0
c p weight 80 1.0 0
c p weight -80 1.0 0
c p weight 81 1.0 0
c p weight -81 1.0 0
c p weight 82 1.0 0
c p weight -82 1.0 0
c p weight 83 1.0 0
c p weight -83 1.0 0
c p weight 84 1.0 0
c p weight -84 1.0 0
c p weight 85 1.0 0
c p weight -85 1.0 0
c p weight 86 1.0 0
c p weight -86 1.0 0
c p weight 87 1.0 0
c p weight -87 1.0 0
c p weight 88 1.0 0
c p weight -88 1.0 0
c p weight 89 1.0 0
c p weight -89 1.0 0
c p weight 90 1.0 0
c p weight -90 1.0 0
c p weight 91 1.0 0
c p weight -91 1.0 0
c p weight 92 1.0 0
c p weight -92 1.0 0
c p weight 93 1.0 0
c p weight -93 1.0 0
c p weight 94 1.0 0
c p weight -94 1.0 0
c p weight 95 1.0 0
c p weight -95 1.0 0
c p weight 96 1.0 0
c p weight -96 1.0 0
c p weight 97 1.0 0
c p weight -97 1.0 0
c p weight 98 1.0 0
c p weight -98 1.0 0
c p weight 99 1.0 0
c p weight -99 1.0 0
c p weight 100 1.0 0
c p weight -100 1.0 0
c p weight 101 1.0 0
c p weight -101 1.0 0
c p weight 102 1.0 0
c p weight -102 1.0 0
c p weight 103 1.0 0
c p weight -103 1.0 0
c p weight 104 1.0 0
c p weight -104 1.0 0
c p weight 105 1.0 0
c p weight -105 1.0 0
c p weight 106 1.0 0
c p weight -106 1.0 0
c p weight 107 1.0 0
c p weight -107 1.0 0
c p weight 108 1.0 0
c p weight -108 1.0 0
c p weight 109 1.0 0
c p weight -109 1.0 0
c p weight 110 1.0 0
c p weight -110 1.0 0
c p weight 111 1.0 0
c p weight -111 1.0 0
c p weight 112 1.0 0
c p weight -112 1.0 0
c p weight 113 1.0 0
c p weight -113 1.0 0
c p weight 114 1.0 0
c p weight -114 1.0 0
c p weight 115 1.0 0
c p weight -115 1.0 0
c p weight 116 1.0 0
c p weight -116 1.0 0
c p weight 117 1.0 0
c p weight -117 1.0 0
c p weight 118 1.0 0
c p weight -118 1.0 0
c p weight 119 1.0 0
c p weight -119 1.0 0
c p weight 120 1.0 0
c p weight -120 1.0 0
c p weight 121 1.0 0
c p weight -121 1.0 0
c p weight 122 1.0 0
c p weight -122 1.0 0
c p weight 123 1.0 0
c p weight -123 1.0 0
c p weight 124 1.0 0
c p weight -124 1.0 0
c p weight 125 1.0 0
c p weight -125 1.0 0
c p weight 126 1.0 0
c p weight -126 1.0 0
c p weight 127 1.0 0
c p weight -127 1.0 0
c p weight 128 1.0 0
c p weight -128 1.0 0
c p weight 129 1.0 0
c p weight -129 1.0 0
c p weight 130 1.0 0
c p weight -130 1.0 0
c p weight 131 1.0 0
c p weight -131 1.0 0
c p weight 132 1.0 0
c p weight -132 1.0 0
c p weight 133 1.0 0
c p weight -133 1.0 0
c p weight 134 1.0 0
c p weight -134 1.0 0
c p weight 135 1.0 0
c p weight -135 1.0 0
c p weight 136 1.0 0
c p weight -136 1.0 0
c p weight 137 1.0 0
c p weight -137 1.0 0
c p weight 138 1.0 0
c p weight -138 1.0 0
c p weight 139 1.0 0
c p weight -139 1.0 0
c p semirings aspmc.semirings.probabilistic 0
c p quantify 1 2 3 4 5 6 7 8 9 10 11 12 13 14 15 16 17 18 19 20 21 22 23 24 25 26 27 28 29 30 31 32 33 34 35 36 37 38 39 40 41 42 43 44 45 46 47 48 49 50 51 52 53 54 55 56 57 58 59 60 61 62 63 64 65 66 67 68 69 70 71 72 73 74 75 76 77 78 79 80 81 82 83 84 85 86 87 88 89 90 91 92 93 94 95 96 97 98 99 100 101 102 103 104 105 106 107 108 109 110 111 112 113 114 115 116 117 118 119 120 121 122 123 124 125 126 127 128 129 130 131 132 133 134 135 136 137 138 139 0
c p auxilliary 2 6 9 11 13 16 18 20 22 25 27 29 31 33 36 38 40 42 44 46 49 52 54 56 58 60 63 64 65 66 67 68 69 70 71 72 73 74 75 76 77 78 79 80 81 82 83 84 85 86 87 88 89 90 91 92 93 94 95 96 97 98 99 100 101 102 103 104 105 106 107 108 109 110 111 112 113 114 115 116 117 118 119 120 121 122 123 124 125 126 127 128 129 130 131 132 133 134 135 136 137 138 139 0
